NAME: instance_2522
TYPE: TSP
DIMENSION: 20
EDGE_WEIGHT_TYPE: EUC_2D
NODE_COORD_SECTION
0 46.82 27.97
1 85.25 97.29
2 95.71 38.70
3 91.08 23.64
4 31.81 95.05
5 6.42 98.11
6 16.95 77.24
7 12.76 37.40
8 41.92 94.87
9 37.20 99.64
10 15.37 42.67
11 86.05 49.35
12 26.89 3.44
13 6.90 95.95
14 78.08 92.33
15 37.78 75.35
16 61.40 49.23
17 67.88 40.49
18 90.86 26.53
19 91.48 43.18
EOF
